(declare-fun var0 () String)
(assert (str.in.re var0 (re.++ (re.* (re.+ (str.to.re "ggg"))) (re.++ (re.* (re.* (str.to.re "fff"))) (re.++ (re.+ (re.union (str.to.re "dd") (str.to.re "eee"))) (re.++ (re.union (re.+ (str.to.re "bb")) (re.* (str.to.re "cc"))) (re.++ (re.* (re.+ (str.to.re "aaa"))) (re.++ (re.+ (re.* (str.to.re "999"))) (re.++ (re.union (re.union (str.to.re "6") (str.to.re "777")) (re.+ (str.to.re "88"))) (re.++ (re.union (re.+ (str.to.re "4")) (re.+ (str.to.re "5"))) (re.++ (re.+ (re.union (str.to.re "22") (str.to.re "3"))) (re.union (re.+ (str.to.re "00")) (re.* (str.to.re "111"))))))))))))))
(assert (<= 26 (str.len var0)))
(check-sat)